Route #1: 1 19 17 30 20 33 7 22 14 1
Route #2: 1 8 41 18 6 2 13 29 16 1
Route #3: 1 38 42 35 5 31 43 9 1
Route #4: 1 27 15 3 37 25 40 36 32 21 1
Route #5: 1 26 34 4 44 28 1
Route #6: 1 11 12 10 39 23 1
Route #7: 1 24 1
cost 1067
